language Essence 1.3

letting course_load be
        function(1 --> 6, 2 --> 2, 3 --> 3, 4 --> 4, 5 --> 9, 6 --> 9, 7 --> 9, 8 --> 9, 9 --> 9, 10 --> 9, 11 --> 7,
                 12 --> 7, 13 --> 9, 14 --> 1, 15 --> 9, 16 --> 3, 17 --> 9, 18 --> 9, 19 --> 9)
letting courses_per_period_lb be 3
letting courses_per_period_ub be 9
letting load_per_period_lb be 33
letting load_per_period_ub be 46
letting n_courses be 19
letting n_periods be 4
letting prerequisite be relation()
